# Objective value = 2.4926020903587359e+03
allocVar_j_0_k_0 0
allocVar_j_0_k_1 1
allocVar_j_0_k_2 0
allocVar_j_1_k_0 0
allocVar_j_1_k_1 1
allocVar_j_1_k_2 0
allocVar_j_2_k_0 1
allocVar_j_2_k_1 0
allocVar_j_2_k_2 0
allocVar_j_3_k_0 1
allocVar_j_3_k_1 0
allocVar_j_3_k_2 0
allocVar_j_4_k_0 0
allocVar_j_4_k_1 1
allocVar_j_4_k_2 0
cum_prob_j_0_k_0_s_0 0
cum_prob_j_0_k_0_s_1 0
cum_prob_j_0_k_0_s_2 0
cum_prob_j_0_k_0_s_3 0
cum_prob_j_0_k_0_s_4 0
cum_prob_j_0_k_0_s_5 0
cum_prob_j_0_k_0_s_6 0
cum_prob_j_0_k_0_s_7 0
cum_prob_j_0_k_0_s_8 0
cum_prob_j_0_k_0_s_9 0
cum_prob_j_0_k_0_s_10 0
cum_prob_j_0_k_0_s_11 0
cum_prob_j_0_k_0_s_12 0
cum_prob_j_0_k_0_s_13 0
cum_prob_j_0_k_0_s_14 0
cum_prob_j_0_k_0_s_15 0
cum_prob_j_0_k_0_s_16 0
cum_prob_j_0_k_0_s_17 0
cum_prob_j_0_k_0_s_18 0
cum_prob_j_0_k_0_s_19 0
cum_prob_j_0_k_0_s_20 0
cum_prob_j_0_k_0_s_21 0
cum_prob_j_0_k_0_s_22 0
cum_prob_j_0_k_0_s_23 0
cum_prob_j_0_k_0_s_24 0
cum_prob_j_0_k_0_s_25 0
cum_prob_j_0_k_0_s_26 0
cum_prob_j_0_k_0_s_27 0
cum_prob_j_0_k_0_s_28 0
cum_prob_j_0_k_0_s_29 0
cum_prob_j_0_k_0_s_30 0
cum_prob_j_0_k_0_s_31 0
cum_prob_j_0_k_1_s_0 1.5595755866353085e+02
cum_prob_j_0_k_1_s_1 6.5402044827945906e+02
cum_prob_j_0_k_1_s_2 6.8003219464459448e+02
cum_prob_j_0_k_1_s_3 1.1612569892153829e+03
cum_prob_j_0_k_1_s_4 6.3654143807642504e+02
cum_prob_j_0_k_1_s_5 1.1159716121568904e+03
cum_prob_j_0_k_1_s_6 1.1391232789589883e+03
cum_prob_j_0_k_1_s_7 1.6037711549798451e+03
cum_prob_j_0_k_1_s_8 6.5932406310049157e+02
cum_prob_j_0_k_1_s_9 1.1099756692765684e+03
cum_prob_j_0_k_1_s_10 1.1611703901755998e+03
cum_prob_j_0_k_1_s_11 1.5673750015269109e+03
cum_prob_j_0_k_1_s_12 1.1168154367164727e+03
cum_prob_j_0_k_1_s_13 1.5186737374262545e+03
cum_prob_j_0_k_1_s_14 1.5870096445566089e+03
cum_prob_j_0_k_1_s_15 1.9319753997945522e+03
cum_prob_j_0_k_1_s_16 1.0178259530553059e+03
cum_prob_j_0_k_1_s_17 1.6940726292796385e+03
cum_prob_j_0_k_1_s_18 1.7249595732641121e+03
cum_prob_j_0_k_1_s_19 2.3769591437642630e+03
cum_prob_j_0_k_1_s_20 1.6517385372553724e+03
cum_prob_j_0_k_1_s_21 2.2935972949730972e+03
cum_prob_j_0_k_1_s_22 2.3366384351828083e+03
cum_prob_j_0_k_1_s_23 2.9250283190616547e+03
cum_prob_j_0_k_1_s_24 1.6943513214349778e+03
cum_prob_j_0_k_1_s_25 2.2968663708028439e+03
cum_prob_j_0_k_1_s_26 2.3722861355160080e+03
cum_prob_j_0_k_1_s_27 2.8821312395225355e+03
cum_prob_j_0_k_1_s_28 2.2845570521188170e+03
cum_prob_j_0_k_1_s_29 2.7860275657969805e+03
cum_prob_j_0_k_1_s_30 2.8840815155995610e+03
cum_prob_j_0_k_1_s_31 3.1579367619843542e+03
cum_prob_j_0_k_2_s_0 0
cum_prob_j_0_k_2_s_1 0
cum_prob_j_0_k_2_s_2 0
cum_prob_j_0_k_2_s_3 0
cum_prob_j_0_k_2_s_4 0
cum_prob_j_0_k_2_s_5 0
cum_prob_j_0_k_2_s_6 0
cum_prob_j_0_k_2_s_7 0
cum_prob_j_0_k_2_s_8 0
cum_prob_j_0_k_2_s_9 0
cum_prob_j_0_k_2_s_10 0
cum_prob_j_0_k_2_s_11 0
cum_prob_j_0_k_2_s_12 0
cum_prob_j_0_k_2_s_13 0
cum_prob_j_0_k_2_s_14 0
cum_prob_j_0_k_2_s_15 0
cum_prob_j_0_k_2_s_16 0
cum_prob_j_0_k_2_s_17 0
cum_prob_j_0_k_2_s_18 0
cum_prob_j_0_k_2_s_19 0
cum_prob_j_0_k_2_s_20 0
cum_prob_j_0_k_2_s_21 0
cum_prob_j_0_k_2_s_22 0
cum_prob_j_0_k_2_s_23 0
cum_prob_j_0_k_2_s_24 0
cum_prob_j_0_k_2_s_25 0
cum_prob_j_0_k_2_s_26 0
cum_prob_j_0_k_2_s_27 0
cum_prob_j_0_k_2_s_28 0
cum_prob_j_0_k_2_s_29 0
cum_prob_j_0_k_2_s_30 0
cum_prob_j_0_k_2_s_31 0
cum_prob_j_1_k_0_s_0 0
cum_prob_j_1_k_0_s_1 0
cum_prob_j_1_k_0_s_2 0
cum_prob_j_1_k_0_s_3 0
cum_prob_j_1_k_0_s_4 0
cum_prob_j_1_k_0_s_5 0
cum_prob_j_1_k_0_s_6 0
cum_prob_j_1_k_0_s_7 0
cum_prob_j_1_k_0_s_8 0
cum_prob_j_1_k_0_s_9 0
cum_prob_j_1_k_0_s_10 0
cum_prob_j_1_k_0_s_11 0
cum_prob_j_1_k_0_s_12 0
cum_prob_j_1_k_0_s_13 0
cum_prob_j_1_k_0_s_14 0
cum_prob_j_1_k_0_s_15 0
cum_prob_j_1_k_0_s_16 0
cum_prob_j_1_k_0_s_17 0
cum_prob_j_1_k_0_s_18 0
cum_prob_j_1_k_0_s_19 0
cum_prob_j_1_k_0_s_20 0
cum_prob_j_1_k_0_s_21 0
cum_prob_j_1_k_0_s_22 0
cum_prob_j_1_k_0_s_23 0
cum_prob_j_1_k_0_s_24 0
cum_prob_j_1_k_0_s_25 0
cum_prob_j_1_k_0_s_26 0
cum_prob_j_1_k_0_s_27 0
cum_prob_j_1_k_0_s_28 0
cum_prob_j_1_k_0_s_29 0
cum_prob_j_1_k_0_s_30 0
cum_prob_j_1_k_0_s_31 0
cum_prob_j_1_k_1_s_0 6.5915420186984463e+01
cum_prob_j_1_k_1_s_1 2.7642156640979368e+02
cum_prob_j_1_k_1_s_2 2.8741542400892592e+02
cum_prob_j_1_k_1_s_3 4.9080495389354729e+02
cum_prob_j_1_k_1_s_4 2.6903406745264959e+02
cum_prob_j_1_k_1_s_5 4.7166510147012912e+02
cum_prob_j_1_k_1_s_6 4.8145014721184731e+02
cum_prob_j_1_k_1_s_7 6.7783344693367462e+02
cum_prob_j_1_k_1_s_8 3.8066092531426659e+02
cum_prob_j_1_k_1_s_9 6.4084475145076169e+02
cum_prob_j_1_k_1_s_10 6.7040203734290526e+02
cum_prob_j_1_k_1_s_11 9.0492437905265206e+02
cum_prob_j_1_k_1_s_12 6.4479369302338489e+02
cum_prob_j_1_k_1_s_13 8.7680669111426300e+02
cum_prob_j_1_k_1_s_14 9.1626044549129040e+02
cum_prob_j_1_k_1_s_15 1.1154265171391196e+03
cum_prob_j_1_k_1_s_16 4.3018386507063764e+02
cum_prob_j_1_k_1_s_17 7.1599934073826205e+02
cum_prob_j_1_k_1_s_18 7.2905369929885501e+02
cum_prob_j_1_k_1_s_19 1.0046211422592233e+03
cum_prob_j_1_k_1_s_20 6.9810684814010449e+02
cum_prob_j_1_k_1_s_21 9.6938827930778200e+02
cum_prob_j_1_k_1_s_22 9.8757960563118797e+02
cum_prob_j_1_k_1_s_23 1.2362624316641297e+03
cum_prob_j_1_k_1_s_24 9.7823419153228235e+02
cum_prob_j_1_k_1_s_25 1.3260964174756205e+03
cum_prob_j_1_k_1_s_26 1.3696400389349840e+03
cum_prob_j_1_k_1_s_27 1.6639992469781653e+03
cum_prob_j_1_k_1_s_28 1.3189896290198567e+03
cum_prob_j_1_k_1_s_29 1.6085137650826041e+03
cum_prob_j_1_k_1_s_30 1.6651252393962300e+03
cum_prob_j_1_k_1_s_31 1.8232356396154817e+03
cum_prob_j_1_k_2_s_0 0
cum_prob_j_1_k_2_s_1 0
cum_prob_j_1_k_2_s_2 0
cum_prob_j_1_k_2_s_3 0
cum_prob_j_1_k_2_s_4 0
cum_prob_j_1_k_2_s_5 0
cum_prob_j_1_k_2_s_6 0
cum_prob_j_1_k_2_s_7 0
cum_prob_j_1_k_2_s_8 0
cum_prob_j_1_k_2_s_9 0
cum_prob_j_1_k_2_s_10 0
cum_prob_j_1_k_2_s_11 0
cum_prob_j_1_k_2_s_12 0
cum_prob_j_1_k_2_s_13 0
cum_prob_j_1_k_2_s_14 0
cum_prob_j_1_k_2_s_15 0
cum_prob_j_1_k_2_s_16 0
cum_prob_j_1_k_2_s_17 0
cum_prob_j_1_k_2_s_18 0
cum_prob_j_1_k_2_s_19 0
cum_prob_j_1_k_2_s_20 0
cum_prob_j_1_k_2_s_21 0
cum_prob_j_1_k_2_s_22 0
cum_prob_j_1_k_2_s_23 0
cum_prob_j_1_k_2_s_24 0
cum_prob_j_1_k_2_s_25 0
cum_prob_j_1_k_2_s_26 0
cum_prob_j_1_k_2_s_27 0
cum_prob_j_1_k_2_s_28 0
cum_prob_j_1_k_2_s_29 0
cum_prob_j_1_k_2_s_30 0
cum_prob_j_1_k_2_s_31 0
cum_prob_j_2_k_0_s_0 6.5915420186984463e+01
cum_prob_j_2_k_0_s_1 2.7642156640979368e+02
cum_prob_j_2_k_0_s_2 2.8741542400892592e+02
cum_prob_j_2_k_0_s_3 4.9080495389354729e+02
cum_prob_j_2_k_0_s_4 2.6903406745264954e-05
cum_prob_j_2_k_0_s_5 4.7166510147012912e-05
cum_prob_j_2_k_0_s_6 4.8145014721184728e-05
cum_prob_j_2_k_0_s_7 6.7783344693367448e-05
cum_prob_j_2_k_0_s_8 3.8066092531426659e+02
cum_prob_j_2_k_0_s_9 6.4084475145076169e+02
cum_prob_j_2_k_0_s_10 6.7040203734290526e+02
cum_prob_j_2_k_0_s_11 9.0492437905265206e+02
cum_prob_j_2_k_0_s_12 6.4479369302338497e-05
cum_prob_j_2_k_0_s_13 8.7680669111426301e-05
cum_prob_j_2_k_0_s_14 9.1626044549129041e-05
cum_prob_j_2_k_0_s_15 1.1154265171391196e-04
cum_prob_j_2_k_0_s_16 4.3018386507063764e+02
cum_prob_j_2_k_0_s_17 7.1599934073826205e+02
cum_prob_j_2_k_0_s_18 7.2905369929885501e+02
cum_prob_j_2_k_0_s_19 1.0046211422592232e+03
cum_prob_j_2_k_0_s_20 6.9810684814010441e-05
cum_prob_j_2_k_0_s_21 9.6938827930778188e-05
cum_prob_j_2_k_0_s_22 9.8757960563118782e-05
cum_prob_j_2_k_0_s_23 1.2362624316641298e-04
cum_prob_j_2_k_0_s_24 9.7823419153228247e+02
cum_prob_j_2_k_0_s_25 1.3260964174756205e+03
cum_prob_j_2_k_0_s_26 1.3696400389349840e+03
cum_prob_j_2_k_0_s_27 1.6639992469781653e+03
cum_prob_j_2_k_0_s_28 1.3189896290198566e-04
cum_prob_j_2_k_0_s_29 1.6085137650826041e-04
cum_prob_j_2_k_0_s_30 1.6651252393962300e-04
cum_prob_j_2_k_0_s_31 1.8232356396154817e-04
cum_prob_j_2_k_1_s_0 0
cum_prob_j_2_k_1_s_1 0
cum_prob_j_2_k_1_s_2 0
cum_prob_j_2_k_1_s_3 0
cum_prob_j_2_k_1_s_4 0
cum_prob_j_2_k_1_s_5 0
cum_prob_j_2_k_1_s_6 0
cum_prob_j_2_k_1_s_7 0
cum_prob_j_2_k_1_s_8 0
cum_prob_j_2_k_1_s_9 0
cum_prob_j_2_k_1_s_10 0
cum_prob_j_2_k_1_s_11 0
cum_prob_j_2_k_1_s_12 0
cum_prob_j_2_k_1_s_13 0
cum_prob_j_2_k_1_s_14 0
cum_prob_j_2_k_1_s_15 0
cum_prob_j_2_k_1_s_16 0
cum_prob_j_2_k_1_s_17 0
cum_prob_j_2_k_1_s_18 0
cum_prob_j_2_k_1_s_19 0
cum_prob_j_2_k_1_s_20 0
cum_prob_j_2_k_1_s_21 0
cum_prob_j_2_k_1_s_22 0
cum_prob_j_2_k_1_s_23 0
cum_prob_j_2_k_1_s_24 0
cum_prob_j_2_k_1_s_25 0
cum_prob_j_2_k_1_s_26 0
cum_prob_j_2_k_1_s_27 0
cum_prob_j_2_k_1_s_28 0
cum_prob_j_2_k_1_s_29 0
cum_prob_j_2_k_1_s_30 0
cum_prob_j_2_k_1_s_31 0
cum_prob_j_2_k_2_s_0 0
cum_prob_j_2_k_2_s_1 0
cum_prob_j_2_k_2_s_2 0
cum_prob_j_2_k_2_s_3 0
cum_prob_j_2_k_2_s_4 0
cum_prob_j_2_k_2_s_5 0
cum_prob_j_2_k_2_s_6 0
cum_prob_j_2_k_2_s_7 0
cum_prob_j_2_k_2_s_8 0
cum_prob_j_2_k_2_s_9 0
cum_prob_j_2_k_2_s_10 0
cum_prob_j_2_k_2_s_11 0
cum_prob_j_2_k_2_s_12 0
cum_prob_j_2_k_2_s_13 0
cum_prob_j_2_k_2_s_14 0
cum_prob_j_2_k_2_s_15 0
cum_prob_j_2_k_2_s_16 0
cum_prob_j_2_k_2_s_17 0
cum_prob_j_2_k_2_s_18 0
cum_prob_j_2_k_2_s_19 0
cum_prob_j_2_k_2_s_20 0
cum_prob_j_2_k_2_s_21 0
cum_prob_j_2_k_2_s_22 0
cum_prob_j_2_k_2_s_23 0
cum_prob_j_2_k_2_s_24 0
cum_prob_j_2_k_2_s_25 0
cum_prob_j_2_k_2_s_26 0
cum_prob_j_2_k_2_s_27 0
cum_prob_j_2_k_2_s_28 0
cum_prob_j_2_k_2_s_29 0
cum_prob_j_2_k_2_s_30 0
cum_prob_j_2_k_2_s_31 0
cum_prob_j_3_k_0_s_0 6.5915420186984463e+01
cum_prob_j_3_k_0_s_1 2.7642156640979368e+02
cum_prob_j_3_k_0_s_2 2.8741542400892594e-05
cum_prob_j_3_k_0_s_3 4.9080495389354732e-05
cum_prob_j_3_k_0_s_4 2.6903406745264951e-05
cum_prob_j_3_k_0_s_5 4.7166510147012912e-05
cum_prob_j_3_k_0_s_6 4.8145014721184725e-12
cum_prob_j_3_k_0_s_7 6.7783344693367455e-12
cum_prob_j_3_k_0_s_8 3.8066092531426659e+02
cum_prob_j_3_k_0_s_9 6.4084475145076169e+02
cum_prob_j_3_k_0_s_10 6.7040203734290528e-05
cum_prob_j_3_k_0_s_11 9.0492437905265204e-05
cum_prob_j_3_k_0_s_12 6.4479369302338497e-05
cum_prob_j_3_k_0_s_13 8.7680669111426301e-05
cum_prob_j_3_k_0_s_14 9.1626044549129034e-12
cum_prob_j_3_k_0_s_15 1.1154265174093167e-11
cum_prob_j_3_k_0_s_16 4.3018386507063764e+02
cum_prob_j_3_k_0_s_17 7.1599934073826205e+02
cum_prob_j_3_k_0_s_18 7.2905369929885506e-05
cum_prob_j_3_k_0_s_19 1.0046211422592233e-04
cum_prob_j_3_k_0_s_20 6.9810684814010428e-05
cum_prob_j_3_k_0_s_21 9.6938827930778188e-05
cum_prob_j_3_k_0_s_22 9.8757960691923194e-12
cum_prob_j_3_k_0_s_23 1.2362624314904350e-11
cum_prob_j_3_k_0_s_24 9.7823419153228247e+02
cum_prob_j_3_k_0_s_25 1.3260964174756205e+03
cum_prob_j_3_k_0_s_26 1.3696400389349840e-04
cum_prob_j_3_k_0_s_27 1.6639992469781652e-04
cum_prob_j_3_k_0_s_28 1.3189896290198566e-04
cum_prob_j_3_k_0_s_29 1.6085137650826041e-04
cum_prob_j_3_k_0_s_30 1.6651252393962297e-11
cum_prob_j_3_k_0_s_31 1.8232356403266919e-11
cum_prob_j_3_k_1_s_0 0
cum_prob_j_3_k_1_s_1 0
cum_prob_j_3_k_1_s_2 0
cum_prob_j_3_k_1_s_3 0
cum_prob_j_3_k_1_s_4 0
cum_prob_j_3_k_1_s_5 0
cum_prob_j_3_k_1_s_6 0
cum_prob_j_3_k_1_s_7 0
cum_prob_j_3_k_1_s_8 0
cum_prob_j_3_k_1_s_9 0
cum_prob_j_3_k_1_s_10 0
cum_prob_j_3_k_1_s_11 0
cum_prob_j_3_k_1_s_12 0
cum_prob_j_3_k_1_s_13 0
cum_prob_j_3_k_1_s_14 0
cum_prob_j_3_k_1_s_15 0
cum_prob_j_3_k_1_s_16 0
cum_prob_j_3_k_1_s_17 0
cum_prob_j_3_k_1_s_18 0
cum_prob_j_3_k_1_s_19 0
cum_prob_j_3_k_1_s_20 0
cum_prob_j_3_k_1_s_21 0
cum_prob_j_3_k_1_s_22 0
cum_prob_j_3_k_1_s_23 0
cum_prob_j_3_k_1_s_24 0
cum_prob_j_3_k_1_s_25 0
cum_prob_j_3_k_1_s_26 0
cum_prob_j_3_k_1_s_27 0
cum_prob_j_3_k_1_s_28 0
cum_prob_j_3_k_1_s_29 0
cum_prob_j_3_k_1_s_30 0
cum_prob_j_3_k_1_s_31 0
cum_prob_j_3_k_2_s_0 0
cum_prob_j_3_k_2_s_1 0
cum_prob_j_3_k_2_s_2 0
cum_prob_j_3_k_2_s_3 0
cum_prob_j_3_k_2_s_4 0
cum_prob_j_3_k_2_s_5 0
cum_prob_j_3_k_2_s_6 0
cum_prob_j_3_k_2_s_7 0
cum_prob_j_3_k_2_s_8 0
cum_prob_j_3_k_2_s_9 0
cum_prob_j_3_k_2_s_10 0
cum_prob_j_3_k_2_s_11 0
cum_prob_j_3_k_2_s_12 0
cum_prob_j_3_k_2_s_13 0
cum_prob_j_3_k_2_s_14 0
cum_prob_j_3_k_2_s_15 0
cum_prob_j_3_k_2_s_16 0
cum_prob_j_3_k_2_s_17 0
cum_prob_j_3_k_2_s_18 0
cum_prob_j_3_k_2_s_19 0
cum_prob_j_3_k_2_s_20 0
cum_prob_j_3_k_2_s_21 0
cum_prob_j_3_k_2_s_22 0
cum_prob_j_3_k_2_s_23 0
cum_prob_j_3_k_2_s_24 0
cum_prob_j_3_k_2_s_25 0
cum_prob_j_3_k_2_s_26 0
cum_prob_j_3_k_2_s_27 0
cum_prob_j_3_k_2_s_28 0
cum_prob_j_3_k_2_s_29 0
cum_prob_j_3_k_2_s_30 0
cum_prob_j_3_k_2_s_31 0
cum_prob_j_4_k_0_s_0 0
cum_prob_j_4_k_0_s_1 0
cum_prob_j_4_k_0_s_2 0
cum_prob_j_4_k_0_s_3 0
cum_prob_j_4_k_0_s_4 0
cum_prob_j_4_k_0_s_5 0
cum_prob_j_4_k_0_s_6 4.8145014721184717e-12
cum_prob_j_4_k_0_s_7 0
cum_prob_j_4_k_0_s_8 0
cum_prob_j_4_k_0_s_9 0
cum_prob_j_4_k_0_s_10 0
cum_prob_j_4_k_0_s_11 0
cum_prob_j_4_k_0_s_12 0
cum_prob_j_4_k_0_s_13 0
cum_prob_j_4_k_0_s_14 9.1626044549129034e-12
cum_prob_j_4_k_0_s_15 0
cum_prob_j_4_k_0_s_16 0
cum_prob_j_4_k_0_s_17 0
cum_prob_j_4_k_0_s_18 0
cum_prob_j_4_k_0_s_19 0
cum_prob_j_4_k_0_s_20 0
cum_prob_j_4_k_0_s_21 0
cum_prob_j_4_k_0_s_22 9.8757960691923194e-12
cum_prob_j_4_k_0_s_23 0
cum_prob_j_4_k_0_s_24 0
cum_prob_j_4_k_0_s_25 0
cum_prob_j_4_k_0_s_26 0
cum_prob_j_4_k_0_s_27 0
cum_prob_j_4_k_0_s_28 0
cum_prob_j_4_k_0_s_29 0
cum_prob_j_4_k_0_s_30 1.6651252393962297e-11
cum_prob_j_4_k_0_s_31 0
cum_prob_j_4_k_1_s_0 2.7859134598281695e+01
cum_prob_j_4_k_1_s_1 1.5959206577651238e+02
cum_prob_j_4_k_1_s_2 1.2147605158812214e-05
cum_prob_j_4_k_1_s_3 2.8336637225004138e-05
cum_prob_j_4_k_1_s_4 1.1370717618768240e-05
cum_prob_j_4_k_1_s_5 2.7231597330113118e-05
cum_prob_j_4_k_1_s_6 3.4141373362021254e-28
cum_prob_j_4_k_1_s_7 3.9134732306438276e-12
cum_prob_j_4_k_1_s_8 1.6088623761410275e+02
cum_prob_j_4_k_1_s_9 3.6999188975885608e+02
cum_prob_j_4_k_1_s_10 2.8334524061770542e-05
cum_prob_j_4_k_1_s_11 5.2245833384230358e-05
cum_prob_j_4_k_1_s_12 2.7252188078456078e-05
cum_prob_j_4_k_1_s_13 5.0622457914208475e-05
cum_prob_j_4_k_1_s_14 0
cum_prob_j_4_k_1_s_15 6.4399180008751574e-12
cum_prob_j_4_k_1_s_16 1.8181709477107137e+02
cum_prob_j_4_k_1_s_17 4.1338241211483017e+02
cum_prob_j_4_k_1_s_18 3.0813434975496869e-05
cum_prob_j_4_k_1_s_19 5.8001828691695183e-05
cum_prob_j_4_k_1_s_20 2.9505467144329390e-05
cum_prob_j_4_k_1_s_21 5.5967658400761599e-05
cum_prob_j_4_k_1_s_22 0
cum_prob_j_4_k_1_s_23 7.1375644761002386e-12
cum_prob_j_4_k_1_s_24 4.1345041772062331e+02
cum_prob_j_4_k_1_s_25 7.6562212360094782e+02
cum_prob_j_4_k_1_s_26 5.7887799376298150e-05
cum_prob_j_4_k_1_s_27 9.6071041317417812e-05
cum_prob_j_4_k_1_s_28 5.5747061164691781e-05
cum_prob_j_4_k_1_s_29 9.2867585526565984e-05
cum_prob_j_4_k_1_s_30 0
cum_prob_j_4_k_1_s_31 1.4886659238160769e-11
cum_prob_j_4_k_2_s_0 0
cum_prob_j_4_k_2_s_1 0
cum_prob_j_4_k_2_s_2 0
cum_prob_j_4_k_2_s_3 0
cum_prob_j_4_k_2_s_4 0
cum_prob_j_4_k_2_s_5 0
cum_prob_j_4_k_2_s_6 0
cum_prob_j_4_k_2_s_7 0
cum_prob_j_4_k_2_s_8 0
cum_prob_j_4_k_2_s_9 0
cum_prob_j_4_k_2_s_10 0
cum_prob_j_4_k_2_s_11 0
cum_prob_j_4_k_2_s_12 0
cum_prob_j_4_k_2_s_13 0
cum_prob_j_4_k_2_s_14 0
cum_prob_j_4_k_2_s_15 0
cum_prob_j_4_k_2_s_16 0
cum_prob_j_4_k_2_s_17 0
cum_prob_j_4_k_2_s_18 0
cum_prob_j_4_k_2_s_19 0
cum_prob_j_4_k_2_s_20 0
cum_prob_j_4_k_2_s_21 0
cum_prob_j_4_k_2_s_22 0
cum_prob_j_4_k_2_s_23 0
cum_prob_j_4_k_2_s_24 0
cum_prob_j_4_k_2_s_25 0
cum_prob_j_4_k_2_s_26 0
cum_prob_j_4_k_2_s_27 0
cum_prob_j_4_k_2_s_28 0
cum_prob_j_4_k_2_s_29 0
cum_prob_j_4_k_2_s_30 0
cum_prob_j_4_k_2_s_31 0
